
  32    4
  10   10   10   10

   0   0   0   0   0   2 2 3 
   7   1   0   1   1   2 5 4 
   7   4   1   0   3   2 5 4 
  10   3   0   3   1   1 6 
   6   3   0   3   4   1 6 
   4   8   5   5   0   1 7 
  10   0   2   2   3   3 11 9 8 
   5   3   0   7   4   1 10 
  10   0   4   5   4   1 10 
   1   4   4   4   0   3 14 13 12 
   8   0   3   6   4   2 15 14 
   7   5   6   4   0   2 16 15 
   1   7   4   5   0   2 16 15 
   6  10   3   0   4   2 17 16 
   5   2   6   0   4   2 18 17 
   8   0   3   1   4   2 20 18 
   4   2   0   3   6   1 19 
   3   0   3   3   5   3 26 22 21 
  10   4   5   0   5   3 26 22 21 
   3   2   4   4   0   3 26 22 21 
   7   0   4   7   5   1 23 
   4   0   2   3   2   1 23 
   7   4   0   3   5   1 24 
   7   0   5   2   2   1 25 
   5   4   0   6   5   1 27 
   2   3   0   4   3   1 27 
   6   4   4   4   0   1 28 
   9   0   4   5   8   1 29 
   5   3   0   2   6   2 31 30 
   8   4   6   7   0   1 32
   2   4   6   5   0   1 32
   0   0   0   0   0   0 
